12

    0    90    10    23    43     0     0     0     0     0    0     0
   90     0     0     0     0    88     0     0     0     0    0     0
   10     0     0     0     0     0    26    16     0     0    0     0
   23     0     0     0     0     0     0     0     0     0    0     0
   43     0     0     0     0     0     0     0     0     0    0     0
    0    88     0     0     0     0     0     0     1     0    0     0
    0     0    26     0     0     0     0     0     0     0    0     0
    0     0    16     0     0     0     0     0     0    96    0     0
    0     0     0     0     0     1     0     0     0     0   29     0
    0     0     0     0     0     0     0    96     0     0    0    37
    0     0     0     0     0     0     0     0    29     0    0     0
    0     0     0     0     0     0     0     0     0    37    0     0

    0    36    54    26    59    72     9    34    79    17   46    95
   36     0    73    35    90    58    30    78    35    44   79    36
   54    73     0    21    10    97    58    66    69    61   54    63
   26    35    21     0    93    12    46    40    37    48   68    85
   59    90    10    93     0    64     5    29    76    16    5    76
   72    58    97    12    64     0    96    55    38    54    0    34
    9    30    58    46     5    96     0    83    35    11   56    37
   34    78    66    40    29    55    83     0    44    12   15    80
   79    35    69    37    76    38    35    44     0    64   39    33
   17    44    61    48    16    54    11    12    64     0   70    86
   46    79    54    68     5     0    56    15    39    70    0    18
   95    36    63    85    76    34    37    80    33    86   18     0

12

    0    90    10    23    43    88     0     0     0     0    0     0
   90     0     0     0     0     0     0     0     0     0    0     0
   10     0     0     0     0     0    26    16     0     0    0     0
   23     0     0     0     0     0     0     0     0     0    0     0
   43     0     0     0     0     0     0     0     1    96   29    37
   88     0     0     0     0     0     0     0     0     0    0     0
    0     0    26     0     0     0     0     0     0     0    0     0
    0     0    16     0     0     0     0     0     0     0    0     0
    0     0     0     0     1     0     0     0     0     0    0     0
    0     0     0     0    96     0     0     0     0     0    0     0
    0     0     0     0    29     0     0     0     0     0    0     0
    0     0     0     0    37     0     0     0     0     0    0     0

    0    36    54    26    59    72     9    34    79    17   46    95
   36     0    73    35    90    58    30    78    35    44   79    36
   54    73     0    21    10    97    58    66    69    61   54    63
   26    35    21     0    93    12    46    40    37    48   68    85
   59    90    10    93     0    64     5    29    76    16    5    76
   72    58    97    12    64     0    96    55    38    54    0    34
    9    30    58    46     5    96     0    83    35    11   56    37
   34    78    66    40    29    55    83     0    44    12   15    80
   79    35    69    37    76    38    35    44     0    64   39    33
   17    44    61    48    16    54    11    12    64     0   70    86
   46    79    54    68     5     0    56    15    39    70    0    18
   95    36    63    85    76    34    37    80    33    86   18     0
12

    0    90    10     0     0     0     0     0     0     0    0     0
   90     0     0    23     0     0     0     0     0     0    0     0
   10     0     0     0    43     0     0     0     0     0    0     0
    0    23     0     0     0    88     0     0     0     0    0     0
    0     0    43     0     0     0    26     0     0     0    0     0
    0     0     0    88     0     0     0    16     0     0    0     0
    0     0     0     0    26     0     0     0     1     0    0     0
    0     0     0     0     0    16     0     0     0    96    0     0
    0     0     0     0     0     0     1     0     0     0   29     0
    0     0     0     0     0     0     0    96     0     0    0    37
    0     0     0     0     0     0     0     0    29     0    0     0
    0     0     0     0     0     0     0     0     0    37    0     0

    0    36    54    26    59    72     9    34    79    17   46    95
   36     0    73    35    90    58    30    78    35    44   79    36
   54    73     0    21    10    97    58    66    69    61   54    63
   26    35    21     0    93    12    46    40    37    48   68    85
   59    90    10    93     0    64     5    29    76    16    5    76
   72    58    97    12    64     0    96    55    38    54    0    34
    9    30    58    46     5    96     0    83    35    11   56    37
   34    78    66    40    29    55    83     0    44    12   15    80
   79    35    69    37    76    38    35    44     0    64   39    33
   17    44    61    48    16    54    11    12    64     0   70    86
   46    79    54    68     5     0    56    15    39    70    0    18
   95    36    63    85    76    34    37    80    33    86   18     0
  100
0  1  2  3  4  5  6  7  8  9  1  2  3  4  5  6  7  8  9 10  2  3  4  5  6  7  8  9 10 11  3  4  5  6  7  8  9 10 11 12  4  5  6  7  8  9 10 11 12 13  5  6  7  8  9 10 11 12 13 14  6  7  8  9 10 11 12 13 14 15  7  8  9 10 11 12 13 14 15 16  8  9 10 11 12 13 14 15 16 17  9 10 11 12 13 14 15 16 17 18
  1  0  1  2  3  4  5  6  7  8  2  1  2  3  4  5  6  7  8  9  3  2  3  4  5  6  7  8  9 10  4  3  4  5  6  7  8  9 10 11  5  4  5  6  7  8  9 10 11 12  6  5  6  7  8  9 10 11 12 13  7  6  7  8  9 10 11 12 13 14  8  7  8  9 10 11 12 13 14 15  9  8  9 10 11 12 13 14 15 16 10  9 10 11 12 13 14 15 16 17
  2  1  0  1  2  3  4  5  6  7  3  2  1  2  3  4  5  6  7  8  4  3  2  3  4  5  6  7  8  9  5  4  3  4  5  6  7  8  9 10  6  5  4  5  6  7  8  9 10 11  7  6  5  6  7  8  9 10 11 12  8  7  6  7  8  9 10 11 12 13  9  8  7  8  9 10 11 12 13 14 10  9  8  9 10 11 12 13 14 15 11 10  9 10 11 12 13 14 15 16
  3  2  1  0  1  2  3  4  5  6  4  3  2  1  2  3  4  5  6  7  5  4  3  2  3  4  5  6  7  8  6  5  4  3  4  5  6  7  8  9  7  6  5  4  5  6  7  8  9 10  8  7  6  5  6  7  8  9 10 11  9  8  7  6  7  8  9 10 11 12 10  9  8  7  8  9 10 11 12 13 11 10  9  8  9 10 11 12 13 14 12 11 10  9 10 11 12 13 14 15
  4  3  2  1  0  1  2  3  4  5  5  4  3  2  1  2  3  4  5  6  6  5  4  3  2  3  4  5  6  7  7  6  5  4  3  4  5  6  7  8  8  7  6  5  4  5  6  7  8  9  9  8  7  6  5  6  7  8  9 10 10  9  8  7  6  7  8  9 10 11 11 10  9  8  7  8  9 10 11 12 12 11 10  9  8  9 10 11 12 13 13 12 11 10  9 10 11 12 13 14
  5  4  3  2  1  0  1  2  3  4  6  5  4  3  2  1  2  3  4  5  7  6  5  4  3  2  3  4  5  6  8  7  6  5  4  3  4  5  6  7  9  8  7  6  5  4  5  6  7  8 10  9  8  7  6  5  6  7  8  9 11 10  9  8  7  6  7  8  9 10 12 11 10  9  8  7  8  9 10 11 13 12 11 10  9  8  9 10 11 12 14 13 12 11 10  9 10 11 12 13
  6  5  4  3  2  1  0  1  2  3  7  6  5  4  3  2  1  2  3  4  8  7  6  5  4  3  2  3  4  5  9  8  7  6  5  4  3  4  5  6 10  9  8  7  6  5  4  5  6  7 11 10  9  8  7  6  5  6  7  8 12 11 10  9  8  7  6  7  8  9 13 12 11 10  9  8  7  8  9 10 14 13 12 11 10  9  8  9 10 11 15 14 13 12 11 10  9 10 11 12
  7  6  5  4  3  2  1  0  1  2  8  7  6  5  4  3  2  1  2  3  9  8  7  6  5  4  3  2  3  4 10  9  8  7  6  5  4  3  4  5 11 10  9  8  7  6  5  4  5  6 12 11 10  9  8  7  6  5  6  7 13 12 11 10  9  8  7  6  7  8 14 13 12 11 10  9  8  7  8  9 15 14 13 12 11 10  9  8  9 10 16 15 14 13 12 11 10  9 10 11
  8  7  6  5  4  3  2  1  0  1  9  8  7  6  5  4  3  2  1  2 10  9  8  7  6  5  4  3  2  3 11 10  9  8  7  6  5  4  3  4 12 11 10  9  8  7  6  5  4  5 13 12 11 10  9  8  7  6  5  6 14 13 12 11 10  9  8  7  6  7 15 14 13 12 11 10  9  8  7  8 16 15 14 13 12 11 10  9  8  9 17 16 15 14 13 12 11 10  9 10
  9  8  7  6  5  4  3  2  1  0 10  9  8  7  6  5  4  3  2  1 11 10  9  8  7  6  5  4  3  2 12 11 10  9  8  7  6  5  4  3 13 12 11 10  9  8  7  6  5  4 14 13 12 11 10  9  8  7  6  5 15 14 13 12 11 10  9  8  7  6 16 15 14 13 12 11 10  9  8  7 17 16 15 14 13 12 11 10  9  8 18 17 16 15 14 13 12 11 10  9
  1  2  3  4  5  6  7  8  9 10  0  1  2  3  4  5  6  7  8  9  1  2  3  4  5  6  7  8  9 10  2  3  4  5  6  7  8  9 10 11  3  4  5  6  7  8  9 10 11 12  4  5  6  7  8  9 10 11 12 13  5  6  7  8  9 10 11 12 13 14  6  7  8  9 10 11 12 13 14 15  7  8  9 10 11 12 13 14 15 16  8  9 10 11 12 13 14 15 16 17
  2  1  2  3  4  5  6  7  8  9  1  0  1  2  3  4  5  6  7  8  2  1  2  3  4  5  6  7  8  9  3  2  3  4  5  6  7  8  9 10  4  3  4  5  6  7  8  9 10 11  5  4  5  6  7  8  9 10 11 12  6  5  6  7  8  9 10 11 12 13  7  6  7  8  9 10 11 12 13 14  8  7  8  9 10 11 12 13 14 15  9  8  9 10 11 12 13 14 15 16
  3  2  1  2  3  4  5  6  7  8  2  1  0  1  2  3  4  5  6  7  3  2  1  2  3  4  5  6  7  8  4  3  2  3  4  5  6  7  8  9  5  4  3  4  5  6  7  8  9 10  6  5  4  5  6  7  8  9 10 11  7  6  5  6  7  8  9 10 11 12  8  7  6  7  8  9 10 11 12 13  9  8  7  8  9 10 11 12 13 14 10  9  8  9 10 11 12 13 14 15
  4  3  2  1  2  3  4  5  6  7  3  2  1  0  1  2  3  4  5  6  4  3  2  1  2  3  4  5  6  7  5  4  3  2  3  4  5  6  7  8  6  5  4  3  4  5  6  7  8  9  7  6  5  4  5  6  7  8  9 10  8  7  6  5  6  7  8  9 10 11  9  8  7  6  7  8  9 10 11 12 10  9  8  7  8  9 10 11 12 13 11 10  9  8  9 10 11 12 13 14
  5  4  3  2  1  2  3  4  5  6  4  3  2  1  0  1  2  3  4  5  5  4  3  2  1  2  3  4  5  6  6  5  4  3  2  3  4  5  6  7  7  6  5  4  3  4  5  6  7  8  8  7  6  5  4  5  6  7  8  9  9  8  7  6  5  6  7  8  9 10 10  9  8  7  6  7  8  9 10 11 11 10  9  8  7  8  9 10 11 12 12 11 10  9  8  9 10 11 12 13
  6  5  4  3  2  1  2  3  4  5  5  4  3  2  1  0  1  2  3  4  6  5  4  3  2  1  2  3  4  5  7  6  5  4  3  2  3  4  5  6  8  7  6  5  4  3  4  5  6  7  9  8  7  6  5  4  5  6  7  8 10  9  8  7  6  5  6  7  8  9 11 10  9  8  7  6  7  8  9 10 12 11 10  9  8  7  8  9 10 11 13 12 11 10  9  8  9 10 11 12
  7  6  5  4  3  2  1  2  3  4  6  5  4  3  2  1  0  1  2  3  7  6  5  4  3  2  1  2  3  4  8  7  6  5  4  3  2  3  4  5  9  8  7  6  5  4  3  4  5  6 10  9  8  7  6  5  4  5  6  7 11 10  9  8  7  6  5  6  7  8 12 11 10  9  8  7  6  7  8  9 13 12 11 10  9  8  7  8  9 10 14 13 12 11 10  9  8  9 10 11
  8  7  6  5  4  3  2  1  2  3  7  6  5  4  3  2  1  0  1  2  8  7  6  5  4  3  2  1  2  3  9  8  7  6  5  4  3  2  3  4 10  9  8  7  6  5  4  3  4  5 11 10  9  8  7  6  5  4  5  6 12 11 10  9  8  7  6  5  6  7 13 12 11 10  9  8  7  6  7  8 14 13 12 11 10  9  8  7  8  9 15 14 13 12 11 10  9  8  9 10
  9  8  7  6  5  4  3  2  1  2  8  7  6  5  4  3  2  1  0  1  9  8  7  6  5  4  3  2  1  2 10  9  8  7  6  5  4  3  2  3 11 10  9  8  7  6  5  4  3  4 12 11 10  9  8  7  6  5  4  5 13 12 11 10  9  8  7  6  5  6 14 13 12 11 10  9  8  7  6  7 15 14 13 12 11 10  9  8  7  8 16 15 14 13 12 11 10  9  8  9
 10  9  8  7  6  5  4  3  2  1  9  8  7  6  5  4  3  2  1  0 10  9  8  7  6  5  4  3  2  1 11 10  9  8  7  6  5  4  3  2 12 11 10  9  8  7  6  5  4  3 13 12 11 10  9  8  7  6  5  4 14 13 12 11 10  9  8  7  6  5 15 14 13 12 11 10  9  8  7  6 16 15 14 13 12 11 10  9  8  7 17 16 15 14 13 12 11 10  9  8
  2  3  4  5  6  7  8  9 10 11  1  2  3  4  5  6  7  8  9 10  0  1  2  3  4  5  6  7  8  9  1  2  3  4  5  6  7  8  9 10  2  3  4  5  6  7  8  9 10 11  3  4  5  6  7  8  9 10 11 12  4  5  6  7  8  9 10 11 12 13  5  6  7  8  9 10 11 12 13 14  6  7  8  9 10 11 12 13 14 15  7  8  9 10 11 12 13 14 15 16
  3  2  3  4  5  6  7  8  9 10  2  1  2  3  4  5  6  7  8  9  1  0  1  2  3  4  5  6  7  8  2  1  2  3  4  5  6  7  8  9  3  2  3  4  5  6  7  8  9 10  4  3  4  5  6  7  8  9 10 11  5  4  5  6  7  8  9 10 11 12  6  5  6  7  8  9 10 11 12 13  7  6  7  8  9 10 11 12 13 14  8  7  8  9 10 11 12 13 14 15
  4  3  2  3  4  5  6  7  8  9  3  2  1  2  3  4  5  6  7  8  2  1  0  1  2  3  4  5  6  7  3  2  1  2  3  4  5  6  7  8  4  3  2  3  4  5  6  7  8  9  5  4  3  4  5  6  7  8  9 10  6  5  4  5  6  7  8  9 10 11  7  6  5  6  7  8  9 10 11 12  8  7  6  7  8  9 10 11 12 13  9  8  7  8  9 10 11 12 13 14
  5  4  3  2  3  4  5  6  7  8  4  3  2  1  2  3  4  5  6  7  3  2  1  0  1  2  3  4  5  6  4  3  2  1  2  3  4  5  6  7  5  4  3  2  3  4  5  6  7  8  6  5  4  3  4  5  6  7  8  9  7  6  5  4  5  6  7  8  9 10  8  7  6  5  6  7  8  9 10 11  9  8  7  6  7  8  9 10 11 12 10  9  8  7  8  9 10 11 12 13
  6  5  4  3  2  3  4  5  6  7  5  4  3  2  1  2  3  4  5  6  4  3  2  1  0  1  2  3  4  5  5  4  3  2  1  2  3  4  5  6  6  5  4  3  2  3  4  5  6  7  7  6  5  4  3  4  5  6  7  8  8  7  6  5  4  5  6  7  8  9  9  8  7  6  5  6  7  8  9 10 10  9  8  7  6  7  8  9 10 11 11 10  9  8  7  8  9 10 11 12
  7  6  5  4  3  2  3  4  5  6  6  5  4  3  2  1  2  3  4  5  5  4  3  2  1  0  1  2  3  4  6  5  4  3  2  1  2  3  4  5  7  6  5  4  3  2  3  4  5  6  8  7  6  5  4  3  4  5  6  7  9  8  7  6  5  4  5  6  7  8 10  9  8  7  6  5  6  7  8  9 11 10  9  8  7  6  7  8  9 10 12 11 10  9  8  7  8  9 10 11
  8  7  6  5  4  3  2  3  4  5  7  6  5  4  3  2  1  2  3  4  6  5  4  3  2  1  0  1  2  3  7  6  5  4  3  2  1  2  3  4  8  7  6  5  4  3  2  3  4  5  9  8  7  6  5  4  3  4  5  6 10  9  8  7  6  5  4  5  6  7 11 10  9  8  7  6  5  6  7  8 12 11 10  9  8  7  6  7  8  9 13 12 11 10  9  8  7  8  9 10
  9  8  7  6  5  4  3  2  3  4  8  7  6  5  4  3  2  1  2  3  7  6  5  4  3  2  1  0  1  2  8  7  6  5  4  3  2  1  2  3  9  8  7  6  5  4  3  2  3  4 10  9  8  7  6  5  4  3  4  5 11 10  9  8  7  6  5  4  5  6 12 11 10  9  8  7  6  5  6  7 13 12 11 10  9  8  7  6  7  8 14 13 12 11 10  9  8  7  8  9
 10  9  8  7  6  5  4  3  2  3  9  8  7  6  5  4  3  2  1  2  8  7  6  5  4  3  2  1  0  1  9  8  7  6  5  4  3  2  1  2 10  9  8  7  6  5  4  3  2  3 11 10  9  8  7  6  5  4  3  4 12 11 10  9  8  7  6  5  4  5 13 12 11 10  9  8  7  6  5  6 14 13 12 11 10  9  8  7  6  7 15 14 13 12 11 10  9  8  7  8
 11 10  9  8  7  6  5  4  3  2 10  9  8  7  6  5  4  3  2  1  9  8  7  6  5  4  3  2  1  0 10  9  8  7  6  5  4  3  2  1 11 10  9  8  7  6  5  4  3  2 12 11 10  9  8  7  6  5  4  3 13 12 11 10  9  8  7  6  5  4 14 13 12 11 10  9  8  7  6  5 15 14 13 12 11 10  9  8  7  6 16 15 14 13 12 11 10  9  8  7
  3  4  5  6  7  8  9 10 11 12  2  3  4  5  6  7  8  9 10 11  1  2  3  4  5  6  7  8  9 10  0  1  2  3  4  5  6  7  8  9  1  2  3  4  5  6  7  8  9 10  2  3  4  5  6  7  8  9 10 11  3  4  5  6  7  8  9 10 11 12  4  5  6  7  8  9 10 11 12 13  5  6  7  8  9 10 11 12 13 14  6  7  8  9 10 11 12 13 14 15
  4  3  4  5  6  7  8  9 10 11  3  2  3  4  5  6  7  8  9 10  2  1  2  3  4  5  6  7  8  9  1  0  1  2  3  4  5  6  7  8  2  1  2  3  4  5  6  7  8  9  3  2  3  4  5  6  7  8  9 10  4  3  4  5  6  7  8  9 10 11  5  4  5  6  7  8  9 10 11 12  6  5  6  7  8  9 10 11 12 13  7  6  7  8  9 10 11 12 13 14
  5  4  3  4  5  6  7  8  9 10  4  3  2  3  4  5  6  7  8  9  3  2  1  2  3  4  5  6  7  8  2  1  0  1  2  3  4  5  6  7  3  2  1  2  3  4  5  6  7  8  4  3  2  3  4  5  6  7  8  9  5  4  3  4  5  6  7  8  9 10  6  5  4  5  6  7  8  9 10 11  7  6  5  6  7  8  9 10 11 12  8  7  6  7  8  9 10 11 12 13
  6  5  4  3  4  5  6  7  8  9  5  4  3  2  3  4  5  6  7  8  4  3  2  1  2  3  4  5  6  7  3  2  1  0  1  2  3  4  5  6  4  3  2  1  2  3  4  5  6  7  5  4  3  2  3  4  5  6  7  8  6  5  4  3  4  5  6  7  8  9  7  6  5  4  5  6  7  8  9 10  8  7  6  5  6  7  8  9 10 11  9  8  7  6  7  8  9 10 11 12
  7  6  5  4  3  4  5  6  7  8  6  5  4  3  2  3  4  5  6  7  5  4  3  2  1  2  3  4  5  6  4  3  2  1  0  1  2  3  4  5  5  4  3  2  1  2  3  4  5  6  6  5  4  3  2  3  4  5  6  7  7  6  5  4  3  4  5  6  7  8  8  7  6  5  4  5  6  7  8  9  9  8  7  6  5  6  7  8  9 10 10  9  8  7  6  7  8  9 10 11
  8  7  6  5  4  3  4  5  6  7  7  6  5  4  3  2  3  4  5  6  6  5  4  3  2  1  2  3  4  5  5  4  3  2  1  0  1  2  3  4  6  5  4  3  2  1  2  3  4  5  7  6  5  4  3  2  3  4  5  6  8  7  6  5  4  3  4  5  6  7  9  8  7  6  5  4  5  6  7  8 10  9  8  7  6  5  6  7  8  9 11 10  9  8  7  6  7  8  9 10
  9  8  7  6  5  4  3  4  5  6  8  7  6  5  4  3  2  3  4  5  7  6  5  4  3  2  1  2  3  4  6  5  4  3  2  1  0  1  2  3  7  6  5  4  3  2  1  2  3  4  8  7  6  5  4  3  2  3  4  5  9  8  7  6  5  4  3  4  5  6 10  9  8  7  6  5  4  5  6  7 11 10  9  8  7  6  5  6  7  8 12 11 10  9  8  7  6  7  8  9
 10  9  8  7  6  5  4  3  4  5  9  8  7  6  5  4  3  2  3  4  8  7  6  5  4  3  2  1  2  3  7  6  5  4  3  2  1  0  1  2  8  7  6  5  4  3  2  1  2  3  9  8  7  6  5  4  3  2  3  4 10  9  8  7  6  5  4  3  4  5 11 10  9  8  7  6  5  4  5  6 12 11 10  9  8  7  6  5  6  7 13 12 11 10  9  8  7  6  7  8
 11 10  9  8  7  6  5  4  3  4 10  9  8  7  6  5  4  3  2  3  9  8  7  6  5  4  3  2  1  2  8  7  6  5  4  3  2  1  0  1  9  8  7  6  5  4  3  2  1  2 10  9  8  7  6  5  4  3  2  3 11 10  9  8  7  6  5  4  3  4 12 11 10  9  8  7  6  5  4  5 13 12 11 10  9  8  7  6  5  6 14 13 12 11 10  9  8  7  6  7
 12 11 10  9  8  7  6  5  4  3 11 10  9  8  7  6  5  4  3  2 10  9  8  7  6  5  4  3  2  1  9  8  7  6  5  4  3  2  1  0 10  9  8  7  6  5  4  3  2  1 11 10  9  8  7  6  5  4  3  2 12 11 10  9  8  7  6  5  4  3 13 12 11 10  9  8  7  6  5  4 14 13 12 11 10  9  8  7  6  5 15 14 13 12 11 10  9  8  7  6
  4  5  6  7  8  9 10 11 12 13  3  4  5  6  7  8  9 10 11 12  2  3  4  5  6  7  8  9 10 11  1  2  3  4  5  6  7  8  9 10  0  1  2  3  4  5  6  7  8  9  1  2  3  4  5  6  7  8  9 10  2  3  4  5  6  7  8  9 10 11  3  4  5  6  7  8  9 10 11 12  4  5  6  7  8  9 10 11 12 13  5  6  7  8  9 10 11 12 13 14
  5  4  5  6  7  8  9 10 11 12  4  3  4  5  6  7  8  9 10 11  3  2  3  4  5  6  7  8  9 10  2  1  2  3  4  5  6  7  8  9  1  0  1  2  3  4  5  6  7  8  2  1  2  3  4  5  6  7  8  9  3  2  3  4  5  6  7  8  9 10  4  3  4  5  6  7  8  9 10 11  5  4  5  6  7  8  9 10 11 12  6  5  6  7  8  9 10 11 12 13
  6  5  4  5  6  7  8  9 10 11  5  4  3  4  5  6  7  8  9 10  4  3  2  3  4  5  6  7  8  9  3  2  1  2  3  4  5  6  7  8  2  1  0  1  2  3  4  5  6  7  3  2  1  2  3  4  5  6  7  8  4  3  2  3  4  5  6  7  8  9  5  4  3  4  5  6  7  8  9 10  6  5  4  5  6  7  8  9 10 11  7  6  5  6  7  8  9 10 11 12
  7  6  5  4  5  6  7  8  9 10  6  5  4  3  4  5  6  7  8  9  5  4  3  2  3  4  5  6  7  8  4  3  2  1  2  3  4  5  6  7  3  2  1  0  1  2  3  4  5  6  4  3  2  1  2  3  4  5  6  7  5  4  3  2  3  4  5  6  7  8  6  5  4  3  4  5  6  7  8  9  7  6  5  4  5  6  7  8  9 10  8  7  6  5  6  7  8  9 10 11
  8  7  6  5  4  5  6  7  8  9  7  6  5  4  3  4  5  6  7  8  6  5  4  3  2  3  4  5  6  7  5  4  3  2  1  2  3  4  5  6  4  3  2  1  0  1  2  3  4  5  5  4  3  2  1  2  3  4  5  6  6  5  4  3  2  3  4  5  6  7  7  6  5  4  3  4  5  6  7  8  8  7  6  5  4  5  6  7  8  9  9  8  7  6  5  6  7  8  9 10
  9  8  7  6  5  4  5  6  7  8  8  7  6  5  4  3  4  5  6  7  7  6  5  4  3  2  3  4  5  6  6  5  4  3  2  1  2  3  4  5  5  4  3  2  1  0  1  2  3  4  6  5  4  3  2  1  2  3  4  5  7  6  5  4  3  2  3  4  5  6  8  7  6  5  4  3  4  5  6  7  9  8  7  6  5  4  5  6  7  8 10  9  8  7  6  5  6  7  8  9
 10  9  8  7  6  5  4  5  6  7  9  8  7  6  5  4  3  4  5  6  8  7  6  5  4  3  2  3  4  5  7  6  5  4  3  2  1  2  3  4  6  5  4  3  2  1  0  1  2  3  7  6  5  4  3  2  1  2  3  4  8  7  6  5  4  3  2  3  4  5  9  8  7  6  5  4  3  4  5  6 10  9  8  7  6  5  4  5  6  7 11 10  9  8  7  6  5  6  7  8
 11 10  9  8  7  6  5  4  5  6 10  9  8  7  6  5  4  3  4  5  9  8  7  6  5  4  3  2  3  4  8  7  6  5  4  3  2  1  2  3  7  6  5  4  3  2  1  0  1  2  8  7  6  5  4  3  2  1  2  3  9  8  7  6  5  4  3  2  3  4 10  9  8  7  6  5  4  3  4  5 11 10  9  8  7  6  5  4  5  6 12 11 10  9  8  7  6  5  6  7
 12 11 10  9  8  7  6  5  4  5 11 10  9  8  7  6  5  4  3  4 10  9  8  7  6  5  4  3  2  3  9  8  7  6  5  4  3  2  1  2  8  7  6  5  4  3  2  1  0  1  9  8  7  6  5  4  3  2  1  2 10  9  8  7  6  5  4  3  2  3 11 10  9  8  7  6  5  4  3  4 12 11 10  9  8  7  6  5  4  5 13 12 11 10  9  8  7  6  5  6
 13 12 11 10  9  8  7  6  5  4 12 11 10  9  8  7  6  5  4  3 11 10  9  8  7  6  5  4  3  2 10  9  8  7  6  5  4  3  2  1  9  8  7  6  5  4  3  2  1  0 10  9  8  7  6  5  4  3  2  1 11 10  9  8  7  6  5  4  3  2 12 11 10  9  8  7  6  5  4  3 13 12 11 10  9  8  7  6  5  4 14 13 12 11 10  9  8  7  6  5
  5  6  7  8  9 10 11 12 13 14  4  5  6  7  8  9 10 11 12 13  3  4  5  6  7  8  9 10 11 12  2  3  4  5  6  7  8  9 10 11  1  2  3  4  5  6  7  8  9 10  0  1  2  3  4  5  6  7  8  9  1  2  3  4  5  6  7  8  9 10  2  3  4  5  6  7  8  9 10 11  3  4  5  6  7  8  9 10 11 12  4  5  6  7  8  9 10 11 12 13
  6  5  6  7  8  9 10 11 12 13  5  4  5  6  7  8  9 10 11 12  4  3  4  5  6  7  8  9 10 11  3  2  3  4  5  6  7  8  9 10  2  1  2  3  4  5  6  7  8  9  1  0  1  2  3  4  5  6  7  8  2  1  2  3  4  5  6  7  8  9  3  2  3  4  5  6  7  8  9 10  4  3  4  5  6  7  8  9 10 11  5  4  5  6  7  8  9 10 11 12
  7  6  5  6  7  8  9 10 11 12  6  5  4  5  6  7  8  9 10 11  5  4  3  4  5  6  7  8  9 10  4  3  2  3  4  5  6  7  8  9  3  2  1  2  3  4  5  6  7  8  2  1  0  1  2  3  4  5  6  7  3  2  1  2  3  4  5  6  7  8  4  3  2  3  4  5  6  7  8  9  5  4  3  4  5  6  7  8  9 10  6  5  4  5  6  7  8  9 10 11
  8  7  6  5  6  7  8  9 10 11  7  6  5  4  5  6  7  8  9 10  6  5  4  3  4  5  6  7  8  9  5  4  3  2  3  4  5  6  7  8  4  3  2  1  2  3  4  5  6  7  3  2  1  0  1  2  3  4  5  6  4  3  2  1  2  3  4  5  6  7  5  4  3  2  3  4  5  6  7  8  6  5  4  3  4  5  6  7  8  9  7  6  5  4  5  6  7  8  9 10
  9  8  7  6  5  6  7  8  9 10  8  7  6  5  4  5  6  7  8  9  7  6  5  4  3  4  5  6  7  8  6  5  4  3  2  3  4  5  6  7  5  4  3  2  1  2  3  4  5  6  4  3  2  1  0  1  2  3  4  5  5  4  3  2  1  2  3  4  5  6  6  5  4  3  2  3  4  5  6  7  7  6  5  4  3  4  5  6  7  8  8  7  6  5  4  5  6  7  8  9
 10  9  8  7  6  5  6  7  8  9  9  8  7  6  5  4  5  6  7  8  8  7  6  5  4  3  4  5  6  7  7  6  5  4  3  2  3  4  5  6  6  5  4  3  2  1  2  3  4  5  5  4  3  2  1  0  1  2  3  4  6  5  4  3  2  1  2  3  4  5  7  6  5  4  3  2  3  4  5  6  8  7  6  5  4  3  4  5  6  7  9  8  7  6  5  4  5  6  7  8
 11 10  9  8  7  6  5  6  7  8 10  9  8  7  6  5  4  5  6  7  9  8  7  6  5  4  3  4  5  6  8  7  6  5  4  3  2  3  4  5  7  6  5  4  3  2  1  2  3  4  6  5  4  3  2  1  0  1  2  3  7  6  5  4  3  2  1  2  3  4  8  7  6  5  4  3  2  3  4  5  9  8  7  6  5  4  3  4  5  6 10  9  8  7  6  5  4  5  6  7
 12 11 10  9  8  7  6  5  6  7 11 10  9  8  7  6  5  4  5  6 10  9  8  7  6  5  4  3  4  5  9  8  7  6  5  4  3  2  3  4  8  7  6  5  4  3  2  1  2  3  7  6  5  4  3  2  1  0  1  2  8  7  6  5  4  3  2  1  2  3  9  8  7  6  5  4  3  2  3  4 10  9  8  7  6  5  4  3  4  5 11 10  9  8  7  6  5  4  5  6
 13 12 11 10  9  8  7  6  5  6 12 11 10  9  8  7  6  5  4  5 11 10  9  8  7  6  5  4  3  4 10  9  8  7  6  5  4  3  2  3  9  8  7  6  5  4  3  2  1  2  8  7  6  5  4  3  2  1  0  1  9  8  7  6  5  4  3  2  1  2 10  9  8  7  6  5  4  3  2  3 11 10  9  8  7  6  5  4  3  4 12 11 10  9  8  7  6  5  4  5
 14 13 12 11 10  9  8  7  6  5 13 12 11 10  9  8  7  6  5  4 12 11 10  9  8  7  6  5  4  3 11 10  9  8  7  6  5  4  3  2 10  9  8  7  6  5  4  3  2  1  9  8  7  6  5  4  3  2  1  0 10  9  8  7  6  5  4  3  2  1 11 10  9  8  7  6  5  4  3  2 12 11 10  9  8  7  6  5  4  3 13 12 11 10  9  8  7  6  5  4
  6  7  8  9 10 11 12 13 14 15  5  6  7  8  9 10 11 12 13 14  4  5  6  7  8  9 10 11 12 13  3  4  5  6  7  8  9 10 11 12  2  3  4  5  6  7  8  9 10 11  1  2  3  4  5  6  7  8  9 10  0  1  2  3  4  5  6  7  8  9  1  2  3  4  5  6  7  8  9 10  2  3  4  5  6  7  8  9 10 11  3  4  5  6  7  8  9 10 11 12
  7  6  7  8  9 10 11 12 13 14  6  5  6  7  8  9 10 11 12 13  5  4  5  6  7  8  9 10 11 12  4  3  4  5  6  7  8  9 10 11  3  2  3  4  5  6  7  8  9 10  2  1  2  3  4  5  6  7  8  9  1  0  1  2  3  4  5  6  7  8  2  1  2  3  4  5  6  7  8  9  3  2  3  4  5  6  7  8  9 10  4  3  4  5  6  7  8  9 10 11
  8  7  6  7  8  9 10 11 12 13  7  6  5  6  7  8  9 10 11 12  6  5  4  5  6  7  8  9 10 11  5  4  3  4  5  6  7  8  9 10  4  3  2  3  4  5  6  7  8  9  3  2  1  2  3  4  5  6  7  8  2  1  0  1  2  3  4  5  6  7  3  2  1  2  3  4  5  6  7  8  4  3  2  3  4  5  6  7  8  9  5  4  3  4  5  6  7  8  9 10
  9  8  7  6  7  8  9 10 11 12  8  7  6  5  6  7  8  9 10 11  7  6  5  4  5  6  7  8  9 10  6  5  4  3  4  5  6  7  8  9  5  4  3  2  3  4  5  6  7  8  4  3  2  1  2  3  4  5  6  7  3  2  1  0  1  2  3  4  5  6  4  3  2  1  2  3  4  5  6  7  5  4  3  2  3  4  5  6  7  8  6  5  4  3  4  5  6  7  8  9
 10  9  8  7  6  7  8  9 10 11  9  8  7  6  5  6  7  8  9 10  8  7  6  5  4  5  6  7  8  9  7  6  5  4  3  4  5  6  7  8  6  5  4  3  2  3  4  5  6  7  5  4  3  2  1  2  3  4  5  6  4  3  2  1  0  1  2  3  4  5  5  4  3  2  1  2  3  4  5  6  6  5  4  3  2  3  4  5  6  7  7  6  5  4  3  4  5  6  7  8
 11 10  9  8  7  6  7  8  9 10 10  9  8  7  6  5  6  7  8  9  9  8  7  6  5  4  5  6  7  8  8  7  6  5  4  3  4  5  6  7  7  6  5  4  3  2  3  4  5  6  6  5  4  3  2  1  2  3  4  5  5  4  3  2  1  0  1  2  3  4  6  5  4  3  2  1  2  3  4  5  7  6  5  4  3  2  3  4  5  6  8  7  6  5  4  3  4  5  6  7
 12 11 10  9  8  7  6  7  8  9 11 10  9  8  7  6  5  6  7  8 10  9  8  7  6  5  4  5  6  7  9  8  7  6  5  4  3  4  5  6  8  7  6  5  4  3  2  3  4  5  7  6  5  4  3  2  1  2  3  4  6  5  4  3  2  1  0  1  2  3  7  6  5  4  3  2  1  2  3  4  8  7  6  5  4  3  2  3  4  5  9  8  7  6  5  4  3  4  5  6
 13 12 11 10  9  8  7  6  7  8 12 11 10  9  8  7  6  5  6  7 11 10  9  8  7  6  5  4  5  6 10  9  8  7  6  5  4  3  4  5  9  8  7  6  5  4  3  2  3  4  8  7  6  5  4  3  2  1  2  3  7  6  5  4  3  2  1  0  1  2  8  7  6  5  4  3  2  1  2  3  9  8  7  6  5  4  3  2  3  4 10  9  8  7  6  5  4  3  4  5
 14 13 12 11 10  9  8  7  6  7 13 12 11 10  9  8  7  6  5  6 12 11 10  9  8  7  6  5  4  5 11 10  9  8  7  6  5  4  3  4 10  9  8  7  6  5  4  3  2  3  9  8  7  6  5  4  3  2  1  2  8  7  6  5  4  3  2  1  0  1  9  8  7  6  5  4  3  2  1  2 10  9  8  7  6  5  4  3  2  3 11 10  9  8  7  6  5  4  3  4
 15 14 13 12 11 10  9  8  7  6 14 13 12 11 10  9  8  7  6  5 13 12 11 10  9  8  7  6  5  4 12 11 10  9  8  7  6  5  4  3 11 10  9  8  7  6  5  4  3  2 10  9  8  7  6  5  4  3  2  1  9  8  7  6  5  4  3  2  1  0 10  9  8  7  6  5  4  3  2  1 11 10  9  8  7  6  5  4  3  2 12 11 10  9  8  7  6  5  4  3
  7  8  9 10 11 12 13 14 15 16  6  7  8  9 10 11 12 13 14 15  5  6  7  8  9 10 11 12 13 14  4  5  6  7  8  9 10 11 12 13  3  4  5  6  7  8  9 10 11 12  2  3  4  5  6  7  8  9 10 11  1  2  3  4  5  6  7  8  9 10  0  1  2  3  4  5  6  7  8  9  1  2  3  4  5  6  7  8  9 10  2  3  4  5  6  7  8  9 10 11
  8  7  8  9 10 11 12 13 14 15  7  6  7  8  9 10 11 12 13 14  6  5  6  7  8  9 10 11 12 13  5  4  5  6  7  8  9 10 11 12  4  3  4  5  6  7  8  9 10 11  3  2  3  4  5  6  7  8  9 10  2  1  2  3  4  5  6  7  8  9  1  0  1  2  3  4  5  6  7  8  2  1  2  3  4  5  6  7  8  9  3  2  3  4  5  6  7  8  9 10
  9  8  7  8  9 10 11 12 13 14  8  7  6  7  8  9 10 11 12 13  7  6  5  6  7  8  9 10 11 12  6  5  4  5  6  7  8  9 10 11  5  4  3  4  5  6  7  8  9 10  4  3  2  3  4  5  6  7  8  9  3  2  1  2  3  4  5  6  7  8  2  1  0  1  2  3  4  5  6  7  3  2  1  2  3  4  5  6  7  8  4  3  2  3  4  5  6  7  8  9
 10  9  8  7  8  9 10 11 12 13  9  8  7  6  7  8  9 10 11 12  8  7  6  5  6  7  8  9 10 11  7  6  5  4  5  6  7  8  9 10  6  5  4  3  4  5  6  7  8  9  5  4  3  2  3  4  5  6  7  8  4  3  2  1  2  3  4  5  6  7  3  2  1  0  1  2  3  4  5  6  4  3  2  1  2  3  4  5  6  7  5  4  3  2  3  4  5  6  7  8
 11 10  9  8  7  8  9 10 11 12 10  9  8  7  6  7  8  9 10 11  9  8  7  6  5  6  7  8  9 10  8  7  6  5  4  5  6  7  8  9  7  6  5  4  3  4  5  6  7  8  6  5  4  3  2  3  4  5  6  7  5  4  3  2  1  2  3  4  5  6  4  3  2  1  0  1  2  3  4  5  5  4  3  2  1  2  3  4  5  6  6  5  4  3  2  3  4  5  6  7
 12 11 10  9  8  7  8  9 10 11 11 10  9  8  7  6  7  8  9 10 10  9  8  7  6  5  6  7  8  9  9  8  7  6  5  4  5  6  7  8  8  7  6  5  4  3  4  5  6  7  7  6  5  4  3  2  3  4  5  6  6  5  4  3  2  1  2  3  4  5  5  4  3  2  1  0  1  2  3  4  6  5  4  3  2  1  2  3  4  5  7  6  5  4  3  2  3  4  5  6
 13 12 11 10  9  8  7  8  9 10 12 11 10  9  8  7  6  7  8  9 11 10  9  8  7  6  5  6  7  8 10  9  8  7  6  5  4  5  6  7  9  8  7  6  5  4  3  4  5  6  8  7  6  5  4  3  2  3  4  5  7  6  5  4  3  2  1  2  3  4  6  5  4  3  2  1  0  1  2  3  7  6  5  4  3  2  1  2  3  4  8  7  6  5  4  3  2  3  4  5
 14 13 12 11 10  9  8  7  8  9 13 12 11 10  9  8  7  6  7  8 12 11 10  9  8  7  6  5  6  7 11 10  9  8  7  6  5  4  5  6 10  9  8  7  6  5  4  3  4  5  9  8  7  6  5  4  3  2  3  4  8  7  6  5  4  3  2  1  2  3  7  6  5  4  3  2  1  0  1  2  8  7  6  5  4  3  2  1  2  3  9  8  7  6  5  4  3  2  3  4
 15 14 13 12 11 10  9  8  7  8 14 13 12 11 10  9  8  7  6  7 13 12 11 10  9  8  7  6  5  6 12 11 10  9  8  7  6  5  4  5 11 10  9  8  7  6  5  4  3  4 10  9  8  7  6  5  4  3  2  3  9  8  7  6  5  4  3  2  1  2  8  7  6  5  4  3  2  1  0  1  9  8  7  6  5  4  3  2  1  2 10  9  8  7  6  5  4  3  2  3
 16 15 14 13 12 11 10  9  8  7 15 14 13 12 11 10  9  8  7  6 14 13 12 11 10  9  8  7  6  5 13 12 11 10  9  8  7  6  5  4 12 11 10  9  8  7  6  5  4  3 11 10  9  8  7  6  5  4  3  2 10  9  8  7  6  5  4  3  2  1  9  8  7  6  5  4  3  2  1  0 10  9  8  7  6  5  4  3  2  1 11 10  9  8  7  6  5  4  3  2
  8  9 10 11 12 13 14 15 16 17  7  8  9 10 11 12 13 14 15 16  6  7  8  9 10 11 12 13 14 15  5  6  7  8  9 10 11 12 13 14  4  5  6  7  8  9 10 11 12 13  3  4  5  6  7  8  9 10 11 12  2  3  4  5  6  7  8  9 10 11  1  2  3  4  5  6  7  8  9 10  0  1  2  3  4  5  6  7  8  9  1  2  3  4  5  6  7  8  9 10
  9  8  9 10 11 12 13 14 15 16  8  7  8  9 10 11 12 13 14 15  7  6  7  8  9 10 11 12 13 14  6  5  6  7  8  9 10 11 12 13  5  4  5  6  7  8  9 10 11 12  4  3  4  5  6  7  8  9 10 11  3  2  3  4  5  6  7  8  9 10  2  1  2  3  4  5  6  7  8  9  1  0  1  2  3  4  5  6  7  8  2  1  2  3  4  5  6  7  8  9
 10  9  8  9 10 11 12 13 14 15  9  8  7  8  9 10 11 12 13 14  8  7  6  7  8  9 10 11 12 13  7  6  5  6  7  8  9 10 11 12  6  5  4  5  6  7  8  9 10 11  5  4  3  4  5  6  7  8  9 10  4  3  2  3  4  5  6  7  8  9  3  2  1  2  3  4  5  6  7  8  2  1  0  1  2  3  4  5  6  7  3  2  1  2  3  4  5  6  7  8
 11 10  9  8  9 10 11 12 13 14 10  9  8  7  8  9 10 11 12 13  9  8  7  6  7  8  9 10 11 12  8  7  6  5  6  7  8  9 10 11  7  6  5  4  5  6  7  8  9 10  6  5  4  3  4  5  6  7  8  9  5  4  3  2  3  4  5  6  7  8  4  3  2  1  2  3  4  5  6  7  3  2  1  0  1  2  3  4  5  6  4  3  2  1  2  3  4  5  6  7
 12 11 10  9  8  9 10 11 12 13 11 10  9  8  7  8  9 10 11 12 10  9  8  7  6  7  8  9 10 11  9  8  7  6  5  6  7  8  9 10  8  7  6  5  4  5  6  7  8  9  7  6  5  4  3  4  5  6  7  8  6  5  4  3  2  3  4  5  6  7  5  4  3  2  1  2  3  4  5  6  4  3  2  1  0  1  2  3  4  5  5  4  3  2  1  2  3  4  5  6
 13 12 11 10  9  8  9 10 11 12 12 11 10  9  8  7  8  9 10 11 11 10  9  8  7  6  7  8  9 10 10  9  8  7  6  5  6  7  8  9  9  8  7  6  5  4  5  6  7  8  8  7  6  5  4  3  4  5  6  7  7  6  5  4  3  2  3  4  5  6  6  5  4  3  2  1  2  3  4  5  5  4  3  2  1  0  1  2  3  4  6  5  4  3  2  1  2  3  4  5
 14 13 12 11 10  9  8  9 10 11 13 12 11 10  9  8  7  8  9 10 12 11 10  9  8  7  6  7  8  9 11 10  9  8  7  6  5  6  7  8 10  9  8  7  6  5  4  5  6  7  9  8  7  6  5  4  3  4  5  6  8  7  6  5  4  3  2  3  4  5  7  6  5  4  3  2  1  2  3  4  6  5  4  3  2  1  0  1  2  3  7  6  5  4  3  2  1  2  3  4
 15 14 13 12 11 10  9  8  9 10 14 13 12 11 10  9  8  7  8  9 13 12 11 10  9  8  7  6  7  8 12 11 10  9  8  7  6  5  6  7 11 10  9  8  7  6  5  4  5  6 10  9  8  7  6  5  4  3  4  5  9  8  7  6  5  4  3  2  3  4  8  7  6  5  4  3  2  1  2  3  7  6  5  4  3  2  1  0  1  2  8  7  6  5  4  3  2  1  2  3
 16 15 14 13 12 11 10  9  8  9 15 14 13 12 11 10  9  8  7  8 14 13 12 11 10  9  8  7  6  7 13 12 11 10  9  8  7  6  5  6 12 11 10  9  8  7  6  5  4  5 11 10  9  8  7  6  5  4  3  4 10  9  8  7  6  5  4  3  2  3  9  8  7  6  5  4  3  2  1  2  8  7  6  5  4  3  2  1  0  1  9  8  7  6  5  4  3  2  1  2
 17 16 15 14 13 12 11 10  9  8 16 15 14 13 12 11 10  9  8  7 15 14 13 12 11 10  9  8  7  6 14 13 12 11 10  9  8  7  6  5 13 12 11 10  9  8  7  6  5  4 12 11 10  9  8  7  6  5  4  3 11 10  9  8  7  6  5  4  3  2 10  9  8  7  6  5  4  3  2  1  9  8  7  6  5  4  3  2  1  0 10  9  8  7  6  5  4  3  2  1
  9 10 11 12 13 14 15 16 17 18  8  9 10 11 12 13 14 15 16 17  7  8  9 10 11 12 13 14 15 16  6  7  8  9 10 11 12 13 14 15  5  6  7  8  9 10 11 12 13 14  4  5  6  7  8  9 10 11 12 13  3  4  5  6  7  8  9 10 11 12  2  3  4  5  6  7  8  9 10 11  1  2  3  4  5  6  7  8  9 10  0  1  2  3  4  5  6  7  8  9
 10  9 10 11 12 13 14 15 16 17  9  8  9 10 11 12 13 14 15 16  8  7  8  9 10 11 12 13 14 15  7  6  7  8  9 10 11 12 13 14  6  5  6  7  8  9 10 11 12 13  5  4  5  6  7  8  9 10 11 12  4  3  4  5  6  7  8  9 10 11  3  2  3  4  5  6  7  8  9 10  2  1  2  3  4  5  6  7  8  9  1  0  1  2  3  4  5  6  7  8
 11 10  9 10 11 12 13 14 15 16 10  9  8  9 10 11 12 13 14 15  9  8  7  8  9 10 11 12 13 14  8  7  6  7  8  9 10 11 12 13  7  6  5  6  7  8  9 10 11 12  6  5  4  5  6  7  8  9 10 11  5  4  3  4  5  6  7  8  9 10  4  3  2  3  4  5  6  7  8  9  3  2  1  2  3  4  5  6  7  8  2  1  0  1  2  3  4  5  6  7
 12 11 10  9 10 11 12 13 14 15 11 10  9  8  9 10 11 12 13 14 10  9  8  7  8  9 10 11 12 13  9  8  7  6  7  8  9 10 11 12  8  7  6  5  6  7  8  9 10 11  7  6  5  4  5  6  7  8  9 10  6  5  4  3  4  5  6  7  8  9  5  4  3  2  3  4  5  6  7  8  4  3  2  1  2  3  4  5  6  7  3  2  1  0  1  2  3  4  5  6
 13 12 11 10  9 10 11 12 13 14 12 11 10  9  8  9 10 11 12 13 11 10  9  8  7  8  9 10 11 12 10  9  8  7  6  7  8  9 10 11  9  8  7  6  5  6  7  8  9 10  8  7  6  5  4  5  6  7  8  9  7  6  5  4  3  4  5  6  7  8  6  5  4  3  2  3  4  5  6  7  5  4  3  2  1  2  3  4  5  6  4  3  2  1  0  1  2  3  4  5
 14 13 12 11 10  9 10 11 12 13 13 12 11 10  9  8  9 10 11 12 12 11 10  9  8  7  8  9 10 11 11 10  9  8  7  6  7  8  9 10 10  9  8  7  6  5  6  7  8  9  9  8  7  6  5  4  5  6  7  8  8  7  6  5  4  3  4  5  6  7  7  6  5  4  3  2  3  4  5  6  6  5  4  3  2  1  2  3  4  5  5  4  3  2  1  0  1  2  3  4
 15 14 13 12 11 10  9 10 11 12 14 13 12 11 10  9  8  9 10 11 13 12 11 10  9  8  7  8  9 10 12 11 10  9  8  7  6  7  8  9 11 10  9  8  7  6  5  6  7  8 10  9  8  7  6  5  4  5  6  7  9  8  7  6  5  4  3  4  5  6  8  7  6  5  4  3  2  3  4  5  7  6  5  4  3  2  1  2  3  4  6  5  4  3  2  1  0  1  2  3
 16 15 14 13 12 11 10  9 10 11 15 14 13 12 11 10  9  8  9 10 14 13 12 11 10  9  8  7  8  9 13 12 11 10  9  8  7  6  7  8 12 11 10  9  8  7  6  5  6  7 11 10  9  8  7  6  5  4  5  6 10  9  8  7  6  5  4  3  4  5  9  8  7  6  5  4  3  2  3  4  8  7  6  5  4  3  2  1  2  3  7  6  5  4  3  2  1  0  1  2
 17 16 15 14 13 12 11 10  9 10 16 15 14 13 12 11 10  9  8  9 15 14 13 12 11 10  9  8  7  8 14 13 12 11 10  9  8  7  6  7 13 12 11 10  9  8  7  6  5  6 12 11 10  9  8  7  6  5  4  5 11 10  9  8  7  6  5  4  3  4 10  9  8  7  6  5  4  3  2  3  9  8  7  6  5  4  3  2  1  2  8  7  6  5  4  3  2  1  0  1
 18 17 16 15 14 13 12 11 10  9 17 16 15 14 13 12 11 10  9  8 16 15 14 13 12 11 10  9  8  7 15 14 13 12 11 10  9  8  7  6 14 13 12 11 10  9  8  7  6  5 13 12 11 10  9  8  7  6  5  4 12 11 10  9  8  7  6  5  4  3 11 10  9  8  7  6  5  4  3  2 10  9  8  7  6  5  4  3  2  1  9  8  7  6  5  4  3  2  1  0
  0  2  0  0  4  0  0  0  1  0  0  0  5  5  1  0  2  5 10  2  4  5  2  0  3  5  0  0  0  0 10  5  0  0  0  0  1  1  5  1  0  0  5  2  5 10  3  0  0  1  5  2  3  4  5  2  5  2  0  5  5  0  0  0  5  4  2  4  0  0  4  1  5  0  2  1  5  5  1  0  5  5  5  2  5  1  1  1  0  5  2  0  1  3  5  2  5  5  5  2
